(set-logic ALL)
(set-option :produce-models true)
(define-fun-rec str.toLower ((x String)) String
  (ite (= x "")
      ""
      (let ((Head (str.at x 0)))
        (str.++ 
          (ite (and (<= 65 (str.to_code Head)) 
                     (<= (str.to_code Head) 90))
               (str.from_code (+ (str.to_code Head) 32))
               Head)
          (str.toLower (str.substr x 1 (- (str.len x) 1)))))))
(declare-fun sym205 () String)
(declare-fun sym547 () String)
(declare-fun sym813 () String)
(declare-fun sym3836 () String)
(declare-fun sym1910 () String)
(declare-fun sym2128 () String)
(declare-fun sym2986 () String)
(declare-fun sym2337 () String)
(declare-fun sym1479 () String)
(declare-fun sym3624 () String)
(declare-fun sym3414 () String)
(declare-fun sym1695 () String)
(declare-fun sym3202 () String)
(declare-fun sym4047 () String)
(declare-fun sym2552 () String)
(declare-fun sym2770 () String)
(declare-fun sym4352 () String)
(declare-fun sym1040 () String)
(declare-fun sym4253 () String)
(declare-fun sym1261 () String)
(declare-fun sym161 () String)

(assert (not (= (str.toLower (str.substr sym1695  0 1))"p" )))
(assert (= (str.toLower (str.substr sym4047  0 1))"l" ))
(assert (= "y" "y" ))
(assert (not (= "" sym4352 )))
(assert (not (= "" sym2552 )))
(assert (not (= (str.toLower (str.substr sym1695  0 1))"k" )))
(assert (not (= "" sym3624 )))
(assert (not (= (str.toLower (str.substr sym4047  0 1))"r" )))
(assert (not (= (str.toLower (str.substr sym3202  0 1))"q" )))
(assert (= (str.toLower (str.substr sym3414  0 1))"g" ))
(assert (not (= (str.toLower (str.substr sym2552  0 1))"q" )))
(assert (not (= (str.toLower (str.substr sym3414  0 1))"q" )))
(assert (= (str.toLower (str.substr sym2770  0 1))"g" ))
(assert (= (str.toLower (str.substr sym1261  0 1))"p" ))
(assert (not (= "" (str.toLower (str.substr sym4352  0 1)))))
(assert (not (= (str.toLower (str.substr sym3836  0 1))"k" )))
(assert (not (= "y" "n" )))
(assert (not (= (str.toLower (str.substr sym1695  0 1))"g" )))
(assert (not (= (str.toLower (str.substr sym2128  0 1))"q" )))
(assert (not (= (str.toLower (str.substr sym1040  0 1))"r" )))
(assert (not (= "" sym1261 )))
(assert (not (= (str.toLower (str.substr sym2986  0 1))"q" )))
(assert (= (str.toLower (str.substr sym2337  0 1))"h" ))
(assert (not (= "" sym3836 )))
(assert (not (= (str.toLower (str.substr sym2770  0 1))"k" )))
(assert (not (= (str.toLower (str.substr sym2986  0 1))"r" )))
(assert (not (= "" "y" )))
(assert (not (= "" sym2128 )))
(assert (not (= (str.toLower (str.substr sym3836  0 1))"p" )))
(assert (not (= (str.toLower (str.substr sym813  0 1))"q" )))
(assert (not (= "" "q" )))
(assert (= "" "" ))
(assert (not (= "" sym2986 )))
(assert (not (= (str.toLower (str.substr sym2337  0 1))"p" )))
(assert (= (str.toLower (str.substr sym1695  0 1))"h" ))
(assert (not (= (str.toLower (str.substr sym1040  0 1))"q" )))
(assert (not (= (str.toLower (str.substr sym2337  0 1))"l" )))
(assert (not (= (str.toLower (str.substr sym1040  0 1))"g" )))
(assert (not (= (str.toLower (str.substr sym2128  0 1))"k" )))
(assert (= (str.toLower (str.substr sym2128  0 1))"g" ))
(assert (not (= (str.toLower (str.substr sym3414  0 1))"p" )))
(assert (not (= (str.toLower (str.substr sym1040  0 1))"l" )))
(assert (not (= "" sym2770 )))
(assert (not (= "" sym1910 )))
(assert (not (= "" "y" )))
(assert (not (= (str.toLower (str.substr sym4047  0 1))"q" )))
(assert (= (str.toLower (str.substr sym1040  0 1))"h" ))
(assert (not (= "" (str.toLower (str.substr sym205  0 1)))))
(assert (= (str.toLower (str.substr sym813  0 1))"g" ))
(assert (not (= (str.toLower (str.substr sym4253  0 1))"q" )))
(assert (not (= (str.toLower (str.substr sym2770  0 1))"q" )))
(assert (not (= (str.toLower (str.substr sym2986  0 1))"g" )))
(assert (not (= (str.toLower (str.substr sym4047  0 1))"k" )))
(assert (not (= (str.toLower (str.substr sym2986  0 1))"k" )))
(assert (not (= (str.toLower (str.substr sym1261  0 1))"q" )))
(assert (not (= (str.toLower (str.substr sym2986  0 1))"l" )))
(assert (= (str.toLower (str.substr sym4253  0 1))"p" ))
(assert (not (= "" sym547 )))
(assert (= (str.toLower (str.substr sym3836  0 1))"g" ))
(assert (not (= "" sym161 )))
(assert (not (= (str.toLower (str.substr sym3414  0 1))"k" )))
(assert (not (= "" sym1695 )))
(assert (not (= "" "n" )))
(assert (not (= "" sym2337 )))
(assert (= (str.toLower (str.substr sym3202  0 1))"p" ))
(assert (not (= (str.toLower (str.substr sym3836  0 1))"q" )))
(assert (= (str.toLower (str.substr sym547  0 1))"p" ))
(assert (not (= (str.toLower (str.substr sym1695  0 1))"r" )))
(assert (not (= (str.toLower (str.substr sym1479  0 1))"k" )))
(assert (not (= (str.toLower (str.substr sym4352  0 1))"y" )))
(assert (not (= (str.toLower (str.substr sym2337  0 1))"q" )))
(assert (not (= (str.toLower (str.substr sym813  0 1))"k" )))
(assert (not (= (str.toLower (str.substr sym1479  0 1))"q" )))
(assert (not (= (str.toLower (str.substr sym2986  0 1))"p" )))
(assert (= (str.toLower (str.substr sym3624  0 1))"p" ))
(assert (not (= (str.toLower (str.substr sym2128  0 1))"p" )))
(assert (= (str.toLower (str.substr sym2552  0 1))"p" ))
(assert (= (str.toLower (str.substr sym205  0 1))"y" ))
(assert (not (= (str.toLower (str.substr sym1479  0 1))"p" )))
(assert (not (= (str.toLower (str.substr sym4047  0 1))"p" )))
(assert (not (= (str.toLower (str.substr sym547  0 1))"q" )))
(assert (not (= "" sym1479 )))
(assert (not (= (str.toLower (str.substr sym2337  0 1))"k" )))
(assert (not (= (str.toLower (str.substr sym2337  0 1))"r" )))
(assert (not (= (str.toLower (str.substr sym1695  0 1))"l" )))
(assert (not (= (str.toLower (str.substr sym4047  0 1))"g" )))
(assert (= (str.toLower (str.substr sym1479  0 1))"g" ))
(assert (not (= (str.toLower (str.substr sym1910  0 1))"q" )))
(assert (not (= (str.toLower (str.substr sym813  0 1))"p" )))
(assert (not (= "" sym205 )))
(assert (not (= "" sym3202 )))
(assert (not (= (str.toLower (str.substr sym1040  0 1))"k" )))
(assert (= (str.toLower (str.substr sym2986  0 1))"h" ))
(assert (not (= "n" "y" )))
(assert (not (= "" sym1040 )))
(assert (not (= (str.toLower (str.substr sym1695  0 1))"q" )))
(assert (not (= "" sym4253 )))
(assert (not (= "" sym3414 )))
(assert (not (= (str.toLower (str.substr sym2770  0 1))"p" )))
(assert (not (= (str.toLower (str.substr sym3624  0 1))"q" )))
(assert (not (= "" sym813 )))
(assert (not (= "" sym4047 )))
(assert (not (= (str.toLower (str.substr sym2337  0 1))"g" )))
(assert (= (str.toLower (str.substr sym1910  0 1))"p" ))
(assert (not (= (str.toLower (str.substr sym1040  0 1))"p" )))
(check-sat)
(get-model)
(exit)
